Traveling Salesman Problem/TSP_generados/Aleatorio1621103327_10.tsp
NAME: Aleatorio1621103327_10.tsp
COMMENT: Randomly generated scenario
TYPE: TSP
DIMENSION: 10
EDGE_WEIGHT_TYPE: ATT
NODE_COORD_SECTION
1 15.27 30.06
2 45.29 12.08
3 12.09 23.39
4 3.29 22.41
5 43.44 3.15
6 44.64 19.4
7 12.43 2.43
8 19.38 44.36
9 12.73 40.33
10 30.7 47.23
