Traveling Salesman Problem/TSP_generados/Aleatorio1621103327_10.opt.tour
NAME: Aleatorio1621103327_10.opt.tour
COMMENT: Optimal solution for Aleatorio1621103327_10 (146.86127877079855)
TYPE: TOUR
DIMENSION: 10
TOUR_SECTION
1 9 8 10 6 2 5 7 4 3
-1
EOF
